SCIP version 5.0.0 [precision: 8 byte] [memory: block] [mode: optimized] [LP solver: NONE] [GitHash: 3bbd232]
Copyright (C) 2002-2017 Konrad-Zuse-Zentrum fuer Informationstechnik Berlin (ZIB)

External codes: 
  Readline EditLine w  GNU library for command line editing (gnu.org/s/readline)
  CppAD 20160000.1     Algorithmic Differentiation of C++ algorithms developed by B. Bell (www.coin-or.org/CppAD)
  ZLIB 1.2.5           General purpose compression library by J. Gailly and M. Adler (zlib.net)
  GMP 6.1.2            GNU Multiple Precision Arithmetic Library developed by T. Granlund (gmplib.org)

user parameter file <scip.set> not found - using default parameters

read problem <../../Split_data/output/breast/2/0_sample_breast.logreg>
============

File name	:	../../Split_data/output/breast/2/0_sample_breast.logreg
Problem name 	:	0_sample_breast
Number of data	:	156
Number of var	:	33
The given data has linear independence

[dim=1] time: 0.003802
[dim=2] time: 0.008096
[dim=3] time: 0.012384
[dim=4] time: 0.016498
[dim=5] time: 0.020548
[dim=6] time: 0.024497
[dim=7] time: 0.028231
[dim=8] time: 0.031872
[dim=9] time: 0.035504
[dim=10] time: 0.038995
[dim=11] Time of forward = 0.042258sec.
AIC: 132.179
k: 10

[dim=33] time: 0.013255
[dim=32] time: 0.024749
[dim=31] time: 0.03762
[dim=30] time: 0.047858
[dim=29] time: 0.057639
[dim=28] time: 0.068382
[dim=27] time: 0.077521
[dim=26] time: 0.084014
[dim=25] time: 0.090939
[dim=24] time: 0.096507
[dim=23] time: 0.103158
[dim=22] Time of backward = 0.108245sec.
AIC: 117.884
k: 23
